
******************************************************************************
This program contains Ipopt, a library for large-scale nonlinear optimization.
 Ipopt is released as open source code under the Eclipse Public License (EPL).
         For more information visit http://projects.coin-or.org/Ipopt
******************************************************************************

This is Ipopt version 3.12.6, running with linear solver ma57.

Number of nonzeros in equality constraint Jacobian...:    12000
Number of nonzeros in inequality constraint Jacobian.:        0
Number of nonzeros in Lagrangian Hessian.............:     4000

Total number of variables............................:     4000
                     variables with only lower bounds:        0
                variables with lower and upper bounds:     2000
                     variables with only upper bounds:        0
Total number of equality constraints.................:     2002
Total number of inequality constraints...............:        0
        inequality constraints with only lower bounds:        0
   inequality constraints with lower and upper bounds:        0
        inequality constraints with only upper bounds:        0

iter    objective    inf_pr   inf_du lg(mu)  ||d||  lg(rg) alpha_du alpha_pr  ls
   0  2.8742458e-04 1.09e-02 1.97e-05  -1.0 0.00e+00    -  0.00e+00 0.00e+00   0
   1  5.8861660e-04 1.09e-02 4.67e-02  -1.0 2.73e+00    -  3.75e-03 3.93e-03h  1
   2  2.1489922e-02 1.03e-02 3.60e+00  -1.0 4.76e+01    -  5.45e-04 4.86e-02f  1
   3  3.6153286e-01 9.21e-03 9.82e+00  -1.0 2.11e+01    -  4.20e-02 1.80e-01f  1
   4  1.3221211e+00 7.80e-03 1.11e+01  -1.0 8.78e+00    -  1.34e-01 2.57e-01f  1
   5  2.7149887e+00 6.00e-03 1.66e+01  -1.0 5.14e+00    -  1.33e-01 2.95e-01f  1
   6  3.9826451e+00 4.54e-03 1.61e+01  -1.0 4.55e+00    -  1.29e-01 2.64e-01f  1
   7  5.1156046e+00 4.29e-03 1.60e+01  -1.0 4.83e+00    -  1.29e-01 2.41e-01h  1
   8  6.1671518e+00 4.51e-03 1.69e+01  -1.0 5.09e+00    -  1.28e-01 2.27e-01h  1
   9  7.2508903e+00 5.10e-03 1.89e+01  -1.0 4.75e+00    -  1.49e-01 2.32e-01h  1
iter    objective    inf_pr   inf_du lg(mu)  ||d||  lg(rg) alpha_du alpha_pr  ls
  10  8.4241808e+00 5.57e-03 2.06e+01  -1.0 4.23e+00    -  1.76e-01 2.47e-01h  1
  11  9.7780682e+00 6.08e-03 2.24e+01  -1.0 3.59e+00    -  2.46e-01 2.81e-01h  1
  12  1.1436571e+01 6.43e-03 2.39e+01  -1.0 2.60e+00    -  3.33e-01 3.42e-01h  1
  13  1.3635904e+01 6.66e-03 2.48e+01  -1.0 2.35e+00    -  4.34e-01 4.77e-01h  1
  14  1.5578267e+01 3.75e-03 1.55e+01  -1.0 1.92e+00    -  6.59e-01 5.54e-01h  1
  15  1.7309395e+01 2.98e-03 9.34e+00  -1.0 1.44e+00    -  1.00e+00 7.39e-01h  1
  16  1.8055033e+01 1.14e-03 1.84e+00  -1.0 2.02e+00    -  1.00e+00 1.00e+00h  1
  17  1.8037416e+01 1.13e-06 1.17e-03  -1.0 7.76e-01    -  1.00e+00 1.00e+00f  1
  18  1.7906560e+01 5.77e-07 6.53e-01  -2.5 2.82e-01    -  9.39e-01 1.00e+00f  1
  19  1.6432106e+01 1.61e-04 2.70e-01  -2.5 3.91e+00    -  5.74e-01 7.85e-01f  1
iter    objective    inf_pr   inf_du lg(mu)  ||d||  lg(rg) alpha_du alpha_pr  ls
  20  1.5639368e+01 1.71e-04 6.34e-02  -2.5 2.21e+00    -  7.72e-01 6.87e-01f  1
  21  1.5110024e+01 1.67e-04 3.77e-02  -2.5 1.32e+00    -  1.00e+00 8.36e-01f  1
  22  1.5064300e+01 6.20e-06 1.54e-03  -2.5 4.15e-01    -  1.00e+00 1.00e+00f  1
  23  1.4332495e+01 2.83e-04 6.68e-02  -3.8 1.99e+00    -  3.71e-01 5.10e-01f  1
  24  1.3988671e+01 2.95e-04 5.52e-02  -3.8 3.25e+00    -  2.36e-01 2.79e-01f  1
  25  1.3724037e+01 2.73e-04 4.04e-02  -3.8 3.55e+00    -  2.20e-01 2.55e-01f  1
  26  1.3513104e+01 2.41e-04 2.86e-02  -3.8 3.82e+00    -  2.10e-01 2.39e-01f  1
  27  1.3340724e+01 2.07e-04 2.26e-02  -3.8 3.99e+00    -  2.04e-01 2.30e-01f  1
  28  1.3199804e+01 1.74e-04 1.86e-02  -3.8 4.08e+00    -  2.02e-01 2.23e-01f  1
  29  1.3081476e+01 1.49e-04 1.54e-02  -3.8 4.14e+00    -  2.03e-01 2.23e-01f  1
iter    objective    inf_pr   inf_du lg(mu)  ||d||  lg(rg) alpha_du alpha_pr  ls
  30  1.2983354e+01 1.28e-04 1.25e-02  -3.8 4.15e+00    -  2.10e-01 2.22e-01f  1
  31  1.2899961e+01 1.09e-04 1.00e-02  -3.8 4.11e+00    -  2.16e-01 2.28e-01f  1
  32  1.2829909e+01 9.05e-05 7.78e-03  -3.8 3.89e+00    -  2.32e-01 2.36e-01f  1
  33  1.2770595e+01 7.35e-05 5.73e-03  -3.8 3.68e+00    -  2.56e-01 2.50e-01f  1
  34  1.2719177e+01 5.86e-05 4.05e-03  -3.8 3.45e+00    -  2.84e-01 2.78e-01f  1
  35  1.2676235e+01 4.45e-05 2.68e-03  -3.8 2.95e+00    -  3.61e-01 3.12e-01f  1
  36  1.2637808e+01 3.07e-05 1.91e-03  -3.8 2.62e+00    -  4.87e-01 3.90e-01f  1
  37  1.2605237e+01 1.75e-05 1.07e-03  -3.8 1.92e+00    -  8.51e-01 5.30e-01f  1
  38  1.2564773e+01 1.95e-05 1.29e-03  -5.7 6.43e+00    -  1.11e-01 1.47e-01f  1
  39  1.2532152e+01 1.96e-05 1.40e-03  -5.7 6.08e+00    -  1.14e-01 1.38e-01f  1
iter    objective    inf_pr   inf_du lg(mu)  ||d||  lg(rg) alpha_du alpha_pr  ls
  40  1.2503442e+01 1.94e-05 1.44e-03  -5.7 6.41e+00    -  1.13e-01 1.40e-01f  1
  41  1.2479097e+01 1.86e-05 1.41e-03  -5.7 6.27e+00    -  1.13e-01 1.37e-01f  1
  42  1.2459036e+01 1.73e-05 1.33e-03  -5.7 5.43e+00    -  1.18e-01 1.29e-01f  1
  43  1.2442120e+01 1.60e-05 1.23e-03  -5.7 4.67e+00    -  1.40e-01 1.23e-01f  1
  44  1.2426190e+01 1.46e-05 1.10e-03  -5.7 7.29e+00    -  2.03e-01 1.29e-01f  1
  45  1.2409765e+01 1.33e-05 9.56e-04  -5.7 8.73e+00    -  3.57e-01 1.49e-01f  1
  46  1.2392487e+01 1.18e-05 1.77e-03  -5.7 8.68e+00    -  7.86e-01 1.82e-01f  1
  47  1.2373350e+01 1.00e-05 1.09e-03  -5.7 7.17e+00    -  3.58e-02 2.46e-01f  1
  48  1.2360764e+01 9.38e-06 1.55e-03  -5.7 2.79e+00    -  1.24e-01 2.38e-01f  1
  49  1.2346303e+01 6.49e-06 1.06e-03  -5.7 5.18e+00    -  1.00e+00 3.15e-01f  1
iter    objective    inf_pr   inf_du lg(mu)  ||d||  lg(rg) alpha_du alpha_pr  ls
  50  1.2340819e+01 6.51e-06 1.05e-03  -5.7 2.17e+00    -  1.82e-01 1.89e-01f  1
  51  1.2325950e+01 2.96e-06 4.53e-04  -5.7 3.08e+00    -  1.00e+00 5.80e-01f  1
  52  1.2323541e+01 3.40e-06 5.18e-04  -5.7 1.93e+00    -  2.77e-01 2.43e-01f  1
  53  1.2315376e+01 3.07e-07 1.22e-05  -5.7 9.19e-01    -  1.00e+00 1.00e+00f  1
  54  1.2315398e+01 3.91e-08 7.37e-06  -5.7 1.28e-01    -  1.00e+00 1.00e+00h  1
  55  1.2312040e+01 4.88e-08 2.03e-05  -8.6 7.85e-01    -  7.11e-01 9.64e-01f  1
  56  1.2311908e+01 5.32e-09 4.00e-06  -8.6 1.02e+00    -  7.89e-01 1.00e+00f  1
  57  1.2311907e+01 1.03e-09 1.97e-06  -8.6 8.01e-01    -  8.10e-01 1.00e+00h  1
  58  1.2311907e+01 1.14e-10 4.48e-10  -8.6 4.87e-01    -  1.00e+00 1.00e+00h  1

Number of Iterations....: 58

                                   (scaled)                 (unscaled)
Objective...............:   1.2311906752961104e+01    1.2311906752961104e+01
Dual infeasibility......:   4.4775506766918730e-10    4.4775506766918730e-10
Constraint violation....:   1.1439361263798631e-10    1.1439361263798631e-10
Complementarity.........:   9.8906044366712760e-09    9.8906044366712760e-09
Overall NLP error.......:   9.8906044366712760e-09    9.8906044366712760e-09


Number of objective function evaluations             = 59
Number of objective gradient evaluations             = 59
Number of equality constraint evaluations            = 59
Number of inequality constraint evaluations          = 0
Number of equality constraint Jacobian evaluations   = 59
Number of inequality constraint Jacobian evaluations = 0
Number of Lagrangian Hessian evaluations             = 58
Total CPU secs in IPOPT (w/o function evaluations)   =      0.127
Total CPU secs in NLP function evaluations           =      0.057

EXIT: Optimal Solution Found.

************************ CUTEst statistics ************************


 Package used            :  IPOPT
 Problem                 :  TRAINH    
 # variables             =            4008
 # constraints           =            2002
 # objective functions   =        0.1190000E+03
 # objective gradients   =        0.6000000E+02
 # objective Hessians    =        0.5900000E+02
 # Hessian-vector prdct  =        0.0000000E+00
 # constraints functions =        0.1200000E+03
 # constraints gradients =        0.6100000E+02
 # constraints Hessians  =        0.5900000E+02
 Exit code               =               0
 Final f                 =   0.1231191E+02
 Set up time             =            0.05 seconds
 Solve time              =            0.31 seconds


******************************************************************

System Time =       0.1790000051 s.
